c Generated map
c Size: 10 * 10, weights in range: 1 to 10, walls: False, with ratio 0.0
c dim 2 of 7
c
p sp 100 180
c graph contains 100 nodes and 180 arcs
c
a 1 11 3
a 11 1 3
a 1 2 6
a 2 1 6
a 2 12 9
a 12 2 9
a 2 3 8
a 3 2 8
a 3 13 2
a 13 3 2
a 3 4 3
a 4 3 3
a 4 14 7
a 14 4 7
a 4 5 5
a 5 4 5
a 5 15 9
a 15 5 9
a 5 6 9
a 6 5 9
a 6 16 6
a 16 6 6
a 6 7 8
a 7 6 8
a 7 17 10
a 17 7 10
a 7 8 2
a 8 7 2
a 8 18 3
a 18 8 3
a 8 9 8
a 9 8 8
a 9 19 2
a 19 9 2
a 9 10 6
a 10 9 6
a 10 20 9
a 20 10 9
a 11 21 10
a 21 11 10
a 11 12 9
a 12 11 9
a 12 22 9
a 22 12 9
a 12 13 2
a 13 12 2
a 13 23 2
a 23 13 2
a 13 14 6
a 14 13 6
a 14 24 9
a 24 14 9
a 14 15 7
a 15 14 7
a 15 25 7
a 25 15 7
a 15 16 2
a 16 15 2
a 16 26 4
a 26 16 4
a 16 17 10
a 17 16 10
a 17 27 10
a 27 17 10
a 17 18 3
a 18 17 3
a 18 28 7
a 28 18 7
a 18 19 4
a 19 18 4
a 19 29 9
a 29 19 9
a 19 20 4
a 20 19 4
a 20 30 1
a 30 20 1
a 21 31 2
a 31 21 2
a 21 22 5
a 22 21 5
a 22 32 2
a 32 22 2
a 22 23 9
a 23 22 9
a 23 33 4
a 33 23 4
a 23 24 1
a 24 23 1
a 24 34 8
a 34 24 8
a 24 25 3
a 25 24 3
a 25 35 2
a 35 25 2
a 25 26 8
a 26 25 8
a 26 36 8
a 36 26 8
a 26 27 1
a 27 26 1
a 27 37 1
a 37 27 1
a 27 28 3
a 28 27 3
a 28 38 3
a 38 28 3
a 28 29 6
a 29 28 6
a 29 39 6
a 39 29 6
a 29 30 3
a 30 29 3
a 30 40 4
a 40 30 4
a 31 41 4
a 41 31 4
a 31 32 8
a 32 31 8
a 32 42 1
a 42 32 1
a 32 33 10
a 33 32 10
a 33 43 2
a 43 33 2
a 33 34 2
a 34 33 2
a 34 44 5
a 44 34 5
a 34 35 10
a 35 34 10
a 35 45 2
a 45 35 2
a 35 36 4
a 36 35 4
a 36 46 3
a 46 36 3
a 36 37 8
a 37 36 8
a 37 47 2
a 47 37 2
a 37 38 2
a 38 37 2
a 38 48 2
a 48 38 2
a 38 39 4
a 39 38 4
a 39 49 3
a 49 39 3
a 39 40 4
a 40 39 4
a 40 50 4
a 50 40 4
a 41 51 6
a 51 41 6
a 41 42 8
a 42 41 8
a 42 52 6
a 52 42 6
a 42 43 7
a 43 42 7
a 43 53 6
a 53 43 6
a 43 44 3
a 44 43 3
a 44 54 4
a 54 44 4
a 44 45 8
a 45 44 8
a 45 55 5
a 55 45 5
a 45 46 9
a 46 45 9
a 46 56 4
a 56 46 4
a 46 47 7
a 47 46 7
a 47 57 9
a 57 47 9
a 47 48 9
a 48 47 9
a 48 58 5
a 58 48 5
a 48 49 4
a 49 48 4
a 49 59 6
a 59 49 6
a 49 50 1
a 50 49 1
a 50 60 3
a 60 50 3
a 51 61 5
a 61 51 5
a 51 52 7
a 52 51 7
a 52 62 6
a 62 52 6
a 52 53 10
a 53 52 10
a 53 63 6
a 63 53 6
a 53 54 2
a 54 53 2
a 54 64 10
a 64 54 10
a 54 55 2
a 55 54 2
a 55 65 7
a 65 55 7
a 55 56 7
a 56 55 7
a 56 66 1
a 66 56 1
a 56 57 8
a 57 56 8
a 57 67 10
a 67 57 10
a 57 58 8
a 58 57 8
a 58 68 9
a 68 58 9
a 58 59 9
a 59 58 9
a 59 69 9
a 69 59 9
a 59 60 4
a 60 59 4
a 60 70 4
a 70 60 4
a 61 71 9
a 71 61 9
a 61 62 7
a 62 61 7
a 62 72 7
a 72 62 7
a 62 63 1
a 63 62 1
a 63 73 7
a 73 63 7
a 63 64 4
a 64 63 4
a 64 74 2
a 74 64 2
a 64 65 8
a 65 64 8
a 65 75 3
a 75 65 3
a 65 66 7
a 66 65 7
a 66 76 1
a 76 66 1
a 66 67 8
a 67 66 8
a 67 77 5
a 77 67 5
a 67 68 9
a 68 67 9
a 68 78 8
a 78 68 8
a 68 69 2
a 69 68 2
a 69 79 5
a 79 69 5
a 69 70 1
a 70 69 1
a 70 80 7
a 80 70 7
a 71 81 6
a 81 71 6
a 71 72 6
a 72 71 6
a 72 82 6
a 82 72 6
a 72 73 9
a 73 72 9
a 73 83 6
a 83 73 6
a 73 74 2
a 74 73 2
a 74 84 8
a 84 74 8
a 74 75 3
a 75 74 3
a 75 85 2
a 85 75 2
a 75 76 7
a 76 75 7
a 76 86 6
a 86 76 6
a 76 77 3
a 77 76 3
a 77 87 4
a 87 77 4
a 77 78 8
a 78 77 8
a 78 88 1
a 88 78 1
a 78 79 7
a 79 78 7
a 79 89 9
a 89 79 9
a 79 80 6
a 80 79 6
a 80 90 1
a 90 80 1
a 81 91 4
a 91 81 4
a 81 82 4
a 82 81 4
a 82 92 10
a 92 82 10
a 82 83 2
a 83 82 2
a 83 93 2
a 93 83 2
a 83 84 4
a 84 83 4
a 84 94 10
a 94 84 10
a 84 85 8
a 85 84 8
a 85 95 3
a 95 85 3
a 85 86 5
a 86 85 5
a 86 96 1
a 96 86 1
a 86 87 6
a 87 86 6
a 87 97 9
a 97 87 9
a 87 88 7
a 88 87 7
a 88 98 1
a 98 88 1
a 88 89 8
a 89 88 8
a 89 99 9
a 99 89 9
a 89 90 7
a 90 89 7
a 90 100 5
a 100 90 5
a 91 92 6
a 92 91 6
a 92 93 5
a 93 92 5
a 93 94 5
a 94 93 5
a 94 95 10
a 95 94 10
a 95 96 8
a 96 95 8
a 96 97 2
a 97 96 2
a 97 98 4
a 98 97 4
a 98 99 2
a 99 98 2
a 99 100 9
a 100 99 9
